letting n =  10
letting blocks =  [[1, 5], [1, 6], [1, 8], [1, 10], [2, 2], [2, 3], [2, 7], [3, 2], [3, 3], [3, 4], [3, 6], [4, 1], [4, 2], [4, 3], [4, 4], [4, 6], [5, 9], [5, 10], [6, 3], [6, 4], [6, 5], [6, 6], [6, 7], [6, 8], [7, 1], [7, 2], [7, 6], [7, 10], [8, 6], [8, 8], [9, 1], [9, 4], [10, 1], [10, 2], [10, 3], [10, 4], [10, 5], [10, 9]]
